Co4 Ge4
1.0
   4.6294498400000004    0.0000000000000000    0.0000000000000000
   0.0000000000000000    4.6294498400000004    0.0000000000000000
   0.0000000000000000    0.0000000000000000    4.6294498400000004
Co Ge
4 4
direct
   0.1400000000000000    0.1400000000000000    0.1400000000000000 Co
   0.6400000000000000    0.3600000000000000    0.8600000000000000 Co
   0.8600000000000000    0.6400000000000000    0.3600000000000000 Co
   0.3600000000000000    0.8600000000000000    0.6400000000000000 Co
   0.8410000000000000    0.8410000000000000    0.8410000000000000 Ge
   0.3410000000000000    0.6590000000000000    0.1590000000000000 Ge
   0.1590000000000000    0.3410000000000000    0.6590000000000000 Ge
   0.6590000000000000    0.1590000000000000    0.3410000000000000 Ge
