CoGe
4.6294498444
        1.0000000000         0.0000000000         0.0000000000
        0.0000000000         1.0000000000         0.0000000000
        0.0000000000         0.0000000000         1.0000000000
Co  Ge
4   4
Direct
0.140   0.140   0.140
0.640   0.360   0.860
0.860   0.640   0.360
0.360   0.860   0.640
0.841   0.841   0.841
0.341   0.659   0.159
0.159   0.341   0.659
0.659   0.159   0.341
