K-Path for pristine bulk CoGe
60
Line-mode
Reciprocal
0.0 0.0 0.0 ! Gamma
0.5 0.0 0.0 ! X

0.5 0.0 0.0 ! X
0.5 0.5 0.0 ! M

0.5 0.5 0.0 ! M
0.0 0.0 0.0 ! Gamma

0.0 0.0 0.0 ! Gamma
0.5 0.5 0.5 ! R

0.5 0.5 0.5 ! R
0.5 0.0 0.0 ! X

0.5 0.5 0.0 ! M
0.5 0.5 0.5 ! R
